&dos
prefix = 'YBCO6',
outdir='./YBCO6/',
fildos = 'YBCO6.dos',
/