&CONTROL
calculation = 'bands'
prefix = 'YBCO6'
restart_mode = 'from_scratch'
outdir='./YBCO6.scf'
pseudo_dir='~/q-e/pseudo/gbrv_lda'
tprnfor   = .true.
wf_collect    = .true.
verbosity     = 'high'
forc_conv_thr = 1D-3
etot_conv_thr = 1D-4
/
&SYSTEM
   ibrav            = 6 ! 6: tetragonal, 8: orthorombic
   a = 7.84265024037
   c = 11.9703558645
   ntyp             = 6
   nat              = 48
   ecutwfc = 90
   ecutrho = 720
   occupations = 'tetrahedra'
   nspin = 2
   nbnd = 397
/
&ELECTRONS
    conv_thr = 1d-8
    electron_maxstep = 500
    mixing_mode      = 'plain'
    mixing_beta      = 0.1
/
&IONS
ion_dynamics = 'bfgs'
/
&CELL
/

ATOMIC_SPECIES
Y 88.90584 y_lda_v1.4.uspp.F.UPF
Ba 137.327 ba_lda_v1.uspp.F.UPF
Cu 63.546 cu_lda_v1.2.uspp.F.UPF
Cu1 63.546 cu_lda_v1.2.uspp.F.UPF
Cu2 63.546 cu_lda_v1.2.uspp.F.UPF
O 15.999 o_lda_v1.2.uspp.F.UPF

K_POINTS {crystal_b}
6
0.0 0.0 0.0 20! \Gamma
0.5 0.0 0.0 20 ! \Gamma
0.5 0.5 0.0 20 ! S
0.0 0.5 0.0 20 ! Y
0.0 0.0 0.0 20 ! \Gamma
0.5 0.5 0.0 20

ATOMIC_POSITIONS (crystal)
Y                0.2499999137        0.2499999463        0.4999997022
Y                0.2499999137        0.7500000537        0.4999997022
Y                0.7500000863        0.2499999463        0.4999997022
Y                0.7500000863        0.7500000537        0.4999997022
Ba               0.2500000963        0.2500000806        0.1949573348
Ba               0.2500000944        0.2500000769        0.8050427527
Ba               0.2500000963        0.7499999194        0.1949573348
Ba               0.2500000944        0.7499999231        0.8050427527
Ba               0.7499999037        0.2500000806        0.1949573348
Ba               0.7499999056        0.2500000769        0.8050427527
Ba               0.7499999037        0.7499999194        0.1949573348
Ba               0.7499999056        0.7499999231        0.8050427527
Cu               0.0000000000        0.0000000000        0.0000011111
Cu1              0.0000000000        0.0000000000        0.3596482541
Cu2              0.0000000000        0.0000000000        0.6403508200
Cu               0.0000000000        0.5000000000        0.0000001827
Cu2              0.0000000000        0.5000000000        0.3596480318
Cu1              0.0000000000        0.5000000000        0.6403511389
Cu               0.5000000000        0.0000000000        0.0000001753
Cu2              0.5000000000        0.0000000000        0.3596480812
Cu1              0.5000000000        0.0000000000        0.6403510946
Cu               0.5000000000        0.5000000000        0.0000011251
Cu1              0.5000000000        0.5000000000        0.3596479987
Cu2              0.5000000000        0.5000000000        0.6403511074
O                0.0000000000        0.0000000000        0.1520763361
O                0.0000000000        0.0000000000        0.8479259091
O                0.5000000000        0.0000000000        0.1520752770
O                0.5000000000        0.0000000000        0.8479250402
O                0.0000000000        0.5000000000        0.1520753181
O                0.0000000000        0.5000000000        0.8479250286
O                0.5000000000        0.5000000000        0.1520761393
O                0.5000000000        0.5000000000        0.8479261502
O                0.2499999199        0.0000000000        0.3795733951
O                0.2499998288        0.0000000000        0.6204261398
O                0.2499998373        0.5000000000        0.3795734069
O                0.2499999273        0.5000000000        0.6204261878
O                0.7500000801        0.0000000000        0.3795733951
O                0.7500001712        0.0000000000        0.6204261398
O                0.7500001627        0.5000000000        0.3795734069
O                0.7500000727        0.5000000000        0.6204261878
O                0.0000000000        0.2499999132        0.3795712543
O                0.0000000000        0.2499998296        0.6204283134
O                0.5000000000        0.2499998332        0.3795712424
O                0.5000000000        0.2499999268        0.6204283215
O                0.0000000000        0.7500000868        0.3795712543
O                0.0000000000        0.7500001704        0.6204283134
O                0.5000000000        0.7500001668        0.3795712424
O                0.5000000000        0.7500000732        0.6204283215

HUBBARD (ortho-atomic)
U Cu1-3d 10
U Cu2-3d 10
