&CONTROL
calculation = 'nscf'
prefix = 'YBCO6'
restart_mode = 'from_scratch'
outdir='./YBCO6'
pseudo_dir='~/q-e/pseudo/all_pbe_UPF_v1.5'
tprnfor   = .true.
wf_collect    = .true.
verbosity     = 'high'
forc_conv_thr = 1D-3
etot_conv_thr = 1D-4
/
&SYSTEM
   ibrav            = 6 ! 6: tetragonal, 8: orthorombic
   a = 7.8071864708
   c = 12.154972878
   ntyp             = 6
   nat              = 48
   ecutwfc = 90
   ecutrho = 720
   occupations = 'tetrahedra'
   nspin = 2
   starting_magnetization(4) = 0.1
   starting_magnetization(5) = -0.1
/
&ELECTRONS
    conv_thr = 1d-8
    electron_maxstep = 500
    mixing_mode      = 'plain'
    mixing_beta      = 0.1
/
&IONS
ion_dynamics = 'bfgs'
/
&CELL
/

ATOMIC_SPECIES
Y 88.90584 y_pbe_v1.4.uspp.F.UPF
Ba 137.327 ba_pbe_v1.uspp.F.UPF
Cu 63.546 cu_pbe_v1.2.uspp.F.UPF
Cu1 63.546 cu_pbe_v1.2.uspp.F.UPF
Cu2 63.546 cu_pbe_v1.2.uspp.F.UPF
O 15.999 o_pbe_v1.2.uspp.F.UPF

K_POINTS automatic
8 8 4 1 1 1

ATOMIC_POSITIONS (crystal)
Y                0.2500000512        0.2500000517        0.4999998484
Y                0.2500000512        0.7499999483        0.4999998484
Y                0.7499999488        0.2500000517        0.4999998484
Y                0.7499999488        0.7499999483        0.4999998484
Ba               0.2499997343        0.2499998222        0.2056725614
Ba               0.2499997228        0.2499998417        0.7943275032
Ba               0.2499997343        0.7500001778        0.2056725614
Ba               0.2499997228        0.7500001583        0.7943275032
Ba               0.7500002657        0.2499998222        0.2056725614
Ba               0.7500002772        0.2499998417        0.7943275032
Ba               0.7500002657        0.7500001778        0.2056725614
Ba               0.7500002772        0.7500001583        0.7943275032
Cu               0.0000000000        0.0000000000        0.0000002014
Cu1              0.0000000000        0.0000000000        0.3742072570
Cu2              0.0000000000        0.0000000000        0.6257925131
Cu               0.0000000000        0.5000000000        0.0000002798
Cu2              0.0000000000        0.5000000000        0.3742077111
Cu1              0.0000000000        0.5000000000        0.6257917830
Cu               0.5000000000        0.0000000000        0.0000001941
Cu2              0.5000000000        0.0000000000        0.3742076678
Cu1              0.5000000000        0.0000000000        0.6257919218
Cu               0.5000000000        0.5000000000        0.0000002293
Cu1              0.5000000000        0.5000000000        0.3742079038
Cu2              0.5000000000        0.5000000000        0.6257918765
O                0.0000000000        0.0000000000        0.1472678716
O                0.0000000000        0.0000000000        0.8527328431
O                0.5000000000        0.0000000000        0.1472681599
O                0.5000000000        0.0000000000        0.8527325229
O                0.0000000000        0.5000000000        0.1472683453
O                0.0000000000        0.5000000000        0.8527324632
O                0.5000000000        0.5000000000        0.1472683579
O                0.5000000000        0.5000000000        0.8527323630
O                0.2499993486        0.0000000000        0.3807409472
O                0.2499993483        0.0000000000        0.6192587995
O                0.2499993435        0.5000000000        0.3807409795
O                0.2499993413        0.5000000000        0.6192587518
O                0.7500006514        0.0000000000        0.3807409472
O                0.7500006517        0.0000000000        0.6192587995
O                0.7500006565        0.5000000000        0.3807409795
O                0.7500006587        0.5000000000        0.6192587518
O                0.0000000000        0.2499993496        0.3807655313
O                0.0000000000        0.2499993483        0.6192342074
O                0.5000000000        0.2499993439        0.3807655750
O                0.5000000000        0.2499993473        0.6192341496
O                0.0000000000        0.7500006504        0.3807655313
O                0.0000000000        0.7500006517        0.6192342074
O                0.5000000000        0.7500006561        0.3807655750
O                0.5000000000        0.7500006527        0.6192341496

HUBBARD (ortho-atomic)
U Cu1-3d 2.5
U Cu2-3d 2.5
