&dos
prefix = 'YBCO6',
outdir='./YBCO6.scf/',
fildos = 'YBCO6.dos',
/