&CONTROL
calculation = 'relax'
prefix = 'YBCO.relax'
restart_mode = 'from_scratch'
outdir='./YBCO.relax'
pseudo_dir='~/q-e/pseudo/all_pbe_UPF_v1.5'
tprnfor   = .true.
wf_collect    = .true.
verbosity     = 'high'
forc_conv_thr = 1D-3
etot_conv_thr = 1D-4
/
&SYSTEM
   ibrav            = 6 ! 6: tetragonal, 8: orthorombic
   ! celldm(1) = 7.21932072! 3.82030000000000 nm
   ! celldm(2) = 1.01706148732
   ! celldm(3) = 3.05826505772
   ! a = 3.82030000000000
   ! b =  3.88548000000000
   ! c = 11.68349000000000
   a = 7.79837762691
   !b =  7.77096
   c = 12.119136576
   ntyp             = 6
   nat              = 48
   ecutwfc = 90
   ecutrho = 720
   occupations = 'smearing'
   smearing = 'm-p'
   degauss = 0.03
   starting_magnetization(4) = 0.5
   starting_magnetization(5) = -0.5
/
&ELECTRONS
    conv_thr = 1d-8
    electron_maxstep = 500
    mixing_mode      = 'plain'
    mixing_beta      = 0.1
/
&IONS
ion_dynamics = 'bfgs'
/
&CELL
/

ATOMIC_SPECIES
Y 88.90584 y_pbe_v1.4.uspp.F.UPF
Ba 137.327 ba_pbe_v1.uspp.F.UPF
Cu 63.546 cu_pbe_v1.2.uspp.F.UPF
Cu1 63.546 cu_pbe_v1.2.uspp.F.UPF
Cu2 63.546 cu_pbe_v1.2.uspp.F.UPF
O 15.999 o_pbe_v1.2.uspp.F.UPF

K_POINTS automatic
1 1 1 0 0 0

! CELL_PARAMETERS angstrom
! 3.82030000000000 0.00000000000000 0.00000000000000
! 0.00000000000000 3.88548000000000 0.00000000000000
! 0.00000000000000 0.00000000000000 11.68349000000000

ATOMIC_POSITIONS (crystal)
Y 0.25 0.25 0.5 
Y 0.25 0.75 0.5 
Y 0.75 0.25 0.5 
Y 0.75 0.75 0.5 
Ba 0.25 0.25 0.18393 
Ba 0.25 0.25 0.81607 
Ba 0.25 0.75 0.18393 
Ba 0.25 0.75 0.81607 
Ba 0.75 0.25 0.18393 
Ba 0.75 0.25 0.81607 
Ba 0.75 0.75 0.18393 
Ba 0.75 0.75 0.81607 
Cu  0.0000000000 0.0000000000 0.0000000000 
Cu1 0.0000000000 0.0000000000 0.35501 
Cu2 0.0000000000 0.0000000000 0.64499 
Cu  0.0000000000 0.5000000000 0.0000000000 
Cu2 0.0000000000 0.5000000000 0.35501 
Cu1 0.0000000000 0.5000000000 0.64499 
Cu  0.5000000000 0.0000000000 0.0000000000 
Cu2 0.5000000000 0.0000000000 0.35501 
Cu1 0.5000000000 0.0000000000 0.64499 
Cu  0.5000000000 0.5000000000 0.0000000000 
Cu1 0.5000000000 0.5000000000 0.35501 
Cu2 0.5000000000 0.5000000000 0.64499 
O 0.0000000000 0.0000000000 0.1584 
O 0.0000000000 0.0000000000 0.8416 
O 0.5000000000 0.0000000000 0.1584 
O 0.5000000000 0.0000000000 0.8416 
O 0.0000000000 0.5000000000 0.1584 
O 0.0000000000 0.5000000000 0.8416 
O 0.5000000000 0.5000000000 0.1584 
O 0.5000000000 0.5000000000 0.8416 
O 0.25 0.0000000000 0.37819 
O 0.25 0.0000000000 0.62181 
O 0.25 0.5000000000 0.37819 
O 0.25 0.5000000000 0.62181 
O 0.75 0.0000000000 0.37819 
O 0.75 0.0000000000 0.62181 
O 0.75 0.5000000000 0.37819 
O 0.75 0.5000000000 0.62181 
O 0.0000000000 0.25 0.37693 
O 0.0000000000 0.25 0.62307 
O 0.5000000000 0.25 0.37693 
O 0.5000000000 0.25 0.62307 
O 0.0000000000 0.75 0.37693 
O 0.0000000000 0.75 0.62307 
O 0.5000000000 0.75 0.37693 
O 0.5000000000 0.75 0.62307 

HUBBARD (ortho-atomic)
U Cu1-3d 10
U Cu2-3d 10
