&CONTROL
calculation = 'vc-relax'
prefix = 'YBCO.vc-relax'
restart_mode = 'from_scratch'
outdir='./YBCO.vc-relax'
pseudo_dir='~/q-e/pseudo/all_pbe_UPF_v1.5'
tprnfor   = .true.
wf_collect    = .true.
verbosity     = 'high'
forc_conv_thr = 1D-3
etot_conv_thr = 1D-4
/
&SYSTEM
   ibrav            = 6 ! 6: tetragonal, 8: orthorombic
   a = 7.79837762691
   c = 12.119136576
   ntyp             = 6
   nat              = 48
   ecutwfc = 90
   ecutrho = 720
   occupations = 'smearing'
   smearing = 'm-p'
   degauss = 0.03
   ! nspin = 2
   noncolin = .true.
   starting_magnetization(4) = 0.1
   starting_magnetization(5) = -0.1
/
&ELECTRONS
    conv_thr = 1d-8
    electron_maxstep = 500
    mixing_mode      = 'plain'
    mixing_beta      = 0.1
/
&IONS
ion_dynamics = 'bfgs'
/
&CELL
/

ATOMIC_SPECIES
Y 88.90584 y_pbe_v1.4.uspp.F.UPF
Ba 137.327 ba_pbe_v1.uspp.F.UPF
Cu 63.546 cu_pbe_v1.2.uspp.F.UPF
Cu1 63.546 cu_pbe_v1.2.uspp.F.UPF
Cu2 63.546 cu_pbe_v1.2.uspp.F.UPF
O 15.999 o_pbe_v1.2.uspp.F.UPF

K_POINTS automatic
1 1 1 0 0 0

! CELL_PARAMETERS angstrom
! 3.82030000000000 0.00000000000000 0.00000000000000
! 0.00000000000000 3.88548000000000 0.00000000000000
! 0.00000000000000 0.00000000000000 11.68349000000000

ATOMIC_POSITIONS (crystal)
Y                0.2500000714        0.2500000620        0.4999999641
Y                0.2500000714        0.7499999380        0.4999999641
Y                0.7499999286        0.2500000620        0.4999999641
Y                0.7499999286        0.7499999380        0.4999999641
Ba               0.2499998838        0.2499998499        0.2063011086
Ba               0.2499998755        0.2499998635        0.7936989239
Ba               0.2499998838        0.7500001501        0.2063011086
Ba               0.2499998755        0.7500001365        0.7936989239
Ba               0.7500001162        0.2499998499        0.2063011086
Ba               0.7500001245        0.2499998635        0.7936989239
Ba               0.7500001162        0.7500001501        0.2063011086
Ba               0.7500001245        0.7500001365        0.7936989239
Cu               0.0000000000        0.0000000000        0.0000004946
Cu1              0.0000000000        0.0000000000        0.3740445196
Cu2              0.0000000000        0.0000000000        0.6259548866
Cu               0.0000000000        0.5000000000        0.0000005478
Cu2              0.0000000000        0.5000000000        0.3740443515
Cu1              0.0000000000        0.5000000000        0.6259550301
Cu               0.5000000000        0.0000000000        0.0000004827
Cu2              0.5000000000        0.0000000000        0.3740443729
Cu1              0.5000000000        0.0000000000        0.6259550383
Cu               0.5000000000        0.5000000000        0.0000005137
Cu1              0.5000000000        0.5000000000        0.3740441718
Cu2              0.5000000000        0.5000000000        0.6259552249
O                0.0000000000        0.0000000000        0.1466911058
O                0.0000000000        0.0000000000        0.8533095288
O                0.5000000000        0.0000000000        0.1466911126
O                0.5000000000        0.0000000000        0.8533094871
O                0.0000000000        0.5000000000        0.1466911071
O                0.0000000000        0.5000000000        0.8533096239
O                0.5000000000        0.5000000000        0.1466911258
O                0.5000000000        0.5000000000        0.8533095095
O                0.2499993638        0.0000000000        0.3807473874
O                0.2499993681        0.0000000000        0.6192523476
O                0.2499993797        0.5000000000        0.3807473987
O                0.2499993679        0.5000000000        0.6192523213
O                0.7500006362        0.0000000000        0.3807473874
O                0.7500006319        0.0000000000        0.6192523476
O                0.7500006203        0.5000000000        0.3807473987
O                0.7500006321        0.5000000000        0.6192523213
O                0.0000000000        0.2499993641        0.3807763274
O                0.0000000000        0.2499993758        0.6192233990
O                0.5000000000        0.2499993805        0.3807763402
O                0.5000000000        0.2499993748        0.6192233679
O                0.0000000000        0.7500006359        0.3807763274
O                0.0000000000        0.7500006242        0.6192233990
O                0.5000000000        0.7500006195        0.3807763402
O                0.5000000000        0.7500006252        0.6192233679

HUBBARD (ortho-atomic)
U Cu1-3d 2.5
U Cu2-3d 2.5
