&CONTROL
calculation = 'relax'
prefix = 'YBCO.relax'
restart_mode = 'from_scratch'
outdir='./YBCO.relax'
pseudo_dir='~/q-e/pseudo'
tprnfor   = .true.
wf_collect    = .true.
verbosity     = 'high'
forc_conv_thr = 1D-3
etot_conv_thr = 1D-4
/
&SYSTEM
   ibrav            = 8
   ! celldm(1) = 7.21932072! 3.82030000000000 nm
   ! celldm(2) = 1.01706148732
   ! celldm(3) = 3.05826505772
   a = 3.82030000000000
   b =  3.88548000000000
   c = 11.68349000000000
   ntyp             = 5
   nat              = 12
   ecutwfc = 120
   ecutrho = 960
   occupations = 'smearing'
   smearing = 'm-p'
   degauss = 0.03
/
&ELECTRONS
    mixing_beta = 0.3,
    conv_thr = 1d-8
    ! electron_maxstep = 100
    mixing_mode      = 'plain'
    mixing_beta      = 0.1
/
&IONS
ion_dynamics = 'bfgs'
/
&CELL
/

ATOMIC_SPECIES
Y 88.90584 Y_pbe_v1.uspp.F.UPF
Ba 137.327 Ba.pbe-spn-kjpaw_psl.1.0.0.UPF
Cu 63.546 Cu.paw.z_11.ld1.psl.v1.0.0-low.upf
Cu1 63.546 Cu.paw.z_11.ld1.psl.v1.0.0-low.upf
O 15.999 O.pbe-n-kjpaw_psl.0.1.UPF

K_POINTS automatic
8 8 8 0 0 0

! CELL_PARAMETERS angstrom
! 3.82030000000000 0.00000000000000 0.00000000000000
! 0.00000000000000 3.88548000000000 0.00000000000000
! 0.00000000000000 0.00000000000000 11.68349000000000

ATOMIC_POSITIONS (crystal)
Y 0.5 0.5 0.5 
Ba 0.5 0.5 0.18393 
Ba 0.5 0.5 0.81607 
Cu 0.0000000000 0.0000000000 0.0000000000 
Cu1 0.0000000000 0.0000000000 0.35501 
Cu1 0.0000000000 0.0000000000 0.64499 
O 0.5 0.0000000000 0.37819 
O 0.5 0.0000000000 0.62181 
O 0.0000000000 0.5 0.37693 
O 0.0000000000 0.5 0.62307 
O 0.0000000000 0.0000000000 0.1584 
O 0.0000000000 0.0000000000 0.8416 

HUBBARD (ortho-atomic)
U Cu1-3d 10
