&CONTROL
calculation = 'nscf'
prefix = 'YBCO7'
restart_mode = 'from_scratch'
outdir='./YBCO7'
pseudo_dir='~/q-e/pslibrary/pz/PSEUDOPOTENTIALS'
verbosity     = 'high'
forc_conv_thr = 1D-3
etot_conv_thr = 1D-4
/
&SYSTEM
   ibrav            = 8
   ntyp             = 4
   nat              = 13
   a = 3.75907715247
   b = 3.80778620067
   c = 11.4130596248
   ecutwfc = 60
   ecutrho = 540
   occupations = 'tetrahedra'
/
&ELECTRONS
    conv_thr = 1d-8
    electron_maxstep = 500
    mixing_mode      = 'plain'
    mixing_beta      = 0.1
    ! diagonalization = 'cg'
/

ATOMIC_SPECIES
Y 88.90584 Y.pz-spn-rrkjus_psl.1.0.0.UPF
Ba 137.327 Ba.pz-spn-rrkjus_psl.1.0.0.UPF 
Cu 63.546 Cu.pz-dn-rrkjus_psl.1.0.0.UPF 
O 15.999 O.pz-n-rrkjus_psl.1.0.0.UPF

K_POINTS automatic
8 8 8 1 1 1

ATOMIC_POSITIONS (crystal)
Y                0.5000000000        0.5000000000        0.5000000000
Ba               0.5000000000        0.5000000000        0.1815932890
Ba               0.5000000000        0.5000000000        0.8184067110
Cu               0.0000000000        0.0000000000        0.0000000000
Cu               0.0000000000        0.0000000000        0.3517627896
Cu               0.0000000000        0.0000000000        0.6482372104
O                0.5000000000        0.0000000000        0.3768136760
O                0.5000000000        0.0000000000        0.6231863240
O                0.0000000000        0.5000000000        0.3764840765
O                0.0000000000        0.5000000000        0.6235159235
O                0.0000000000        0.0000000000        0.1607390816
O                0.0000000000        0.0000000000        0.8392609184
O                0.0000000000        0.5000000000        0.0000000000
