&CONTROL
calculation = 'vc-relax'
prefix = 'YBCO.vc-relax'
restart_mode = 'from_scratch'
outdir='./YBCO.vc-relax'
pseudo_dir='~/q-e/pslibrary/pz/PSEUDOPOTENTIALS'
tprnfor   = .true.
verbosity     = 'high'
forc_conv_thr = 1D-3
etot_conv_thr = 1D-4
/
&SYSTEM
   ibrav            = 6
   ntyp             = 4
   nat              = 13
   a = 3.824021560
   c = 11.68059675
   ecutwfc = 90
   ecutrho = 720
   occupations = 'smearing'
   smearing = 'm-p'
   degauss = 0.05
/
&ELECTRONS
    conv_thr = 1d-8
    electron_maxstep = 500
    mixing_mode      = 'plain'
    mixing_beta      = 0.05
    ! diagonalization = 'cg'
/
&IONS
ion_dynamics = 'bfgs'
/
&CELL
/

ATOMIC_SPECIES
Y 88.90584 Y.pz-spn-rrkjus_psl.1.0.0.UPF
Ba 137.327 Ba.pz-spn-rrkjus_psl.1.0.0.UPF 
Cu 63.546 Cu.pz-dn-rrkjus_psl.1.0.0.UPF 
O 15.999 O.pz-n-rrkjus_psl.1.0.0.UPF

K_POINTS automatic
4 4 4 0 0 0

ATOMIC_POSITIONS (crystal)
Y                0.5000000000        0.5000000000        0.5000000000
Ba               0.5000000000        0.5000000000        0.1860969432
Ba               0.5000000000        0.5000000000        0.8139030568
Cu               0.0000000000        0.0000000000        0.0000000000
Cu               0.0000000000        0.0000000000        0.3569661441
Cu               0.0000000000        0.0000000000        0.6430338559
O                0.5000000000        0.0000000000        0.3771016857
O                0.5000000000        0.0000000000        0.6228983143
O                0.0000000000        0.5000000000        0.3760135151
O                0.0000000000        0.5000000000        0.6239864849
O                0.0000000000        0.0000000000        0.1559218894
O                0.0000000000        0.0000000000        0.8440781106
O                0.0000000000        0.5000000000        0.0000000000
