&bands
outdir = './DFT-D3/m-p',
prefix = 'MoS2.DFT-D3.m-p',
filband = 'MoS2.DFT-D3.m-p.band',
lsym = .true.
/
