&dos
outdir = './DFT-D3/tetrahedra',
prefix = 'MoS2.DFT-D3.tetrahedra',
fildos = 'MoS2.DFT-D3.tetrahedra.dos'
/ 
