&control
    calculation  = 'vc-relax',
    restart_mode = 'from_scratch',
    prefix       = 'MoS2-2H',
    pseudo_dir   = '.',
    outdir       = './relax',

    wf_collect    = .true.
    verbosity     = 'high'
    forc_conv_thr = 0.01D-3
    etot_conv_thr = 1D-6
/
&system
    ibrav       = 4,
    celldm(1)   = 6.02882349219,
    celldm(3)   = 3.80000000000,
    nat         = 6,
    ntyp        = 2,
    ecutwfc     = 37,
    occupations = 'smearing',
    smearing = 'm-p'
    degauss     = 0.005
    ! vdw_corr    = 'dft-d'
    ! tot_charge  = 0.5
/
&electrons
    conv_thr         = 1.0e-10
    electron_maxstep = 100,
    mixing_mode      = 'plain'
    mixing_beta      = 0.1
    !diagonalization  ='cg'
/
&ions
    ion_dynamics = 'bfgs'
/
&cell
/
ATOMIC_SPECIES
S  32.065  s_pbe_v1.4.uspp.F.UPF
Mo 95.94  Mo_ONCV_PBE-1.0.oncvpsp.upf

ATOMIC_POSITIONS {crystal}
S  0.333333 0.666667 0.144826
S  0.666667 0.333333 0.644826
S  0.333333 0.666667 0.355174
S  0.666667 0.333333 0.855174
Mo 0.666667 0.333333 0.250000
Mo 0.333333 0.666667 0.750000

K_POINTS {automatic}
12 12 2 0 0 0

