&DOS
    prefix='YBCO7'
    outdir='./YBCO7'
    fildos='YBCO7.dos'
    emin=5
    emax=25
/
