&bands
outdir = './Bi2Pd',
prefix = 'Bi2Pd',
filband = 'Bi2Pd.band',
lsym = .true.
/