&DOS
    prefix='Bi2Pd'
    outdir='./Bi2Pd'
    fildos='Bi2Pd.dos'
    ! emin=0
    ! emax=25
/

