&CONTROL
calculation = 'scf'
prefix = 'Bi2Pd'
restart_mode = 'from_scratch'
outdir = './Bi2Pd'
pseudo_dir = '~/q-e/pseudo/pslibrary/rel-pz/PSEUDOPOTENTIALS'
verbosity     = 'high'
forc_conv_thr = 1D-3
etot_conv_thr = 1D-4
/
&SYSTEM
   ibrav            = 7
   ntyp             = 2
   nat              = 3
   a = 3.38668
   c = 13.24694
   ecutwfc = 60
   ecutrho = 540
   occupations = 'smearing'
   smearing = 'm-p'
   degauss = 0.01
   lspinorb = .true.
   noncolin = .true.
/
&ELECTRONS
    conv_thr = 1d-8
    electron_maxstep = 500
    mixing_mode      = 'plain'
    mixing_beta      = 0.1
    ! diagonalization = 'cg'
/

ATOMIC_SPECIES
Bi 208.98 Bi.rel-pz-dn-rrkjus_psl.1.0.0.UPF
Pd 106.42 Pd.rel-pz-n-rrkjus_psl.1.0.0.UPF 

K_POINTS automatic
4 4 4 0 0 0

ATOMIC_POSITIONS (crystal)
Bi 0.0 0.63232 -0.36768
Bi 0.0 0.36768 0.36768
Pd 0.0 0.0 0.0
