&bands
outdir = './STO',
prefix = 'STO',
filband = 'STO.band',
lsym = .true.
/