&bands
outdir = './La2CuO4',
prefix = 'La2CuO4',
filband = 'La2CuO4.band',
lsym = .true.
/